p min 13 18
n 1 1
n 12 -2
n 13 1
a 1 6 0 1 0
a 2 3 0 2 0
a 2 8 0 2 -100
a 3 4 0 2 0
a 3 5 0 1 -99734
a 3 9 0 2 -100
a 4 5 0 2 0
a 4 10 0 2 -100
a 5 11 0 2 -100
a 6 2 0 2 14970
a 6 7 0 2 -100
a 7 8 0 2 -100
a 8 9 0 2 -100
a 9 10 0 2 -100
a 10 11 0 2 -100
a 11 12 0 2 -100
a 13 2 0 1 -520000
a 13 4 0 1 -572000
